Minimize
err

Subject To
q-1 - q-2 > 1
q-2 - q-3 > 1
q-3 - q-4 > 1
q-4 - q-5 > 1
s-1 - s-2 > 1
s-2 - s-3 > 1
s-3 - s-4 > 1
s-4 - s-5 > 1
s-5 - s-6 > 1

comm + s-1 + q-1 >= 3241.24116
comm + s-1 + q-1 - 3241.24116 err <= 3241.24116
comm + s-6 + q-5 >= 1676.65295021
comm + s-6 + q-5 - 1676.65295021 err <= 1676.65295021
comm + s-1 + q-3 >= 2736.18683766
comm + s-1 + q-3 - 2736.18683766 err <= 2736.18683766
comm + s-2 + q-3 >= 2262.27816773
comm + s-2 + q-3 - 2262.27816773 err <= 2262.27816773
comm + s-3 + q-2 >= 2417.81598
comm + s-3 + q-2 - 2417.81598 err <= 2417.81598
comm + s-3 + q-4 >= 2062.92074385
comm + s-3 + q-4 - 2062.92074385 err <= 2062.92074385
Bounds
q-5 = 0
s-6 = 0
End